5516
9109
2234
9846
1606
1255
7542
6455
3075
7648
3984
8997
6895
967
4596
2550
2288
1050
3754
1529
6076
7956
6665
8160
8814
5184
3910
1795
4301
4361
5520
8754
4257
4541
795
4456
6816
3864
9044
4656
9472
4294
1529
1779
663
6402
3248
1712
7514
4152
5873
